# Objective value = 1.0272444997795517e+05
e[1] 991.2117934
e[2] 991.0402734
e[3] 9.8932507339999950e+02
e[4] 9.8760987340000020e+02
e[5] 9.8589467339983810e+02
e[6] 9.8332187339983773e+02
e[7] 9.8074907339468916e+02
e[8] 978.1762733956
e[9] 9.7645447396996065e+02
e[10] 9.7473267454433528e+02
e[11] 9.7301087511902256e+02
e[12] 9.7283275568993508e+02
e[13] 9.7265463627969564e+02
e[14] 9.7247651683236586e+02
e[15] 9.7229839742125694e+02
e[16] 9.7350802273563284e+02
e[17] 9.7471764808538319e+02
e[18] 9.7592727341743807e+02
e[19] 9.7850007341743810e+02
e[20] 9.8107287341743813e+02
e[21] 9.8364567339973212e+02
e[22] 9.8536087339999972e+02
e[23] 9.8707607339999993e+02
e[24] 988.7912734
e[25] 988.9627934
e[26] 989.1343134
pi[1] 0
pi[2] 1
pi[3] 0
pi[4] 0
pi[5] 1
pi[6] 0
pi[7] 0
pi[8] 1
pi[9] 0
pi[10] 0
pi[11] 1
pi[12] 0
pi[13] 0
pi[14] 0
pi[15] 1
pi[16] 0
pi[17] 0
pi[18] 1
pi[19] 0
pi[20] 0
pi[21] 1
pi[22] 0
pi[23] 0
pi[24] 1
pi[25] 0
e_bar 9.7208677380485813e+02
B_minus_s[0] 0
B_minus_s[1] 0
B_minus_s[2] 1
B_minus_s[3] 1
B_minus_s[4] 1
B_minus_s[5] 1
B_minus_s[6] 1
B_minus_s[7] 1
B_minus_s[8] 1
B_minus_s[9] 1
B_minus_s[10] 1
B_minus_s[11] 1
B_minus_s[12] 1
B_minus_s[13] 1
B_minus_s[14] 1
B_minus_s[15] 0
B_minus_s[16] 0
B_minus_s[17] 0
B_minus_s[18] 0
B_minus_s[19] 0
B_minus_s[20] 0
B_minus_s[21] 0
B_minus_s[22] 0
B_minus_s[23] 0
B_minus_s[24] 0
B_minus_s[25] 0
B_add_s[0] 0
B_add_s[1] 0
B_add_s[2] 0
B_add_s[3] 0
B_add_s[4] 0
B_add_s[5] 0
B_add_s[6] 0
B_add_s[7] 0
B_add_s[8] 0
B_add_s[9] 0
B_add_s[10] 0
B_add_s[11] 0
B_add_s[12] 0
B_add_s[13] 0
B_add_s[14] 0
B_add_s[15] 1
B_add_s[16] 1
B_add_s[17] 1
B_add_s[18] 1
B_add_s[19] 1
B_add_s[20] 1
B_add_s[21] 1
B_add_s[22] 1
B_add_s[23] 1
B_add_s[24] 1
B_add_s[25] 0
g_s[0] 0.17152
g_s[1] 0.17152
g_s[2] 1.71520000000055
g_s[3] 1.7151999835156782e+00
g_s[4] 1.7152000001620991e+00
g_s[5] 2.5728
g_s[6] 2.5728000018152319e+00
g_s[7] 2.5727999990891703e+00
g_s[8] 1.7217994256393467e+00
g_s[9] 1.7217994256253633e+00
g_s[10] 1.7217994253127245e+00
g_s[11] 1.7811942908747369e-01
g_s[12] 1.7811941023944655e-01
g_s[13] 1.7811944732977736e-01
g_s[14] 1.7811941110892349e-01
g_s[15] 1.2096253146307845e+00
g_s[16] 1.2096253497503540e+00
g_s[17] 1.2096253667089059e+00
g_s[18] 2.5728
g_s[19] 2.5728
g_s[20] 2.5727999822940157e+00
g_s[21] 1.7152000002676004e+00
g_s[22] 1.7152000000002090e+00
g_s[23] 1.7152000000000953e+00
g_s[24] 0.17152
g_s[25] 0.17152
eth_minus_s[0] 0
eth_minus_s[1] 0
eth_minus_s[2] 0
eth_minus_s[3] 0
eth_minus_s[4] 0
eth_minus_s[5] 0
eth_minus_s[6] 0
eth_minus_s[7] 0
eth_minus_s[8] 0
eth_minus_s[9] 0
eth_minus_s[10] 0
eth_minus_s[11] 0
eth_minus_s[12] 0
eth_minus_s[13] 0
eth_minus_s[14] 0
eth_minus_s[15] 0
eth_minus_s[16] 0
eth_minus_s[17] 0
eth_minus_s[18] 0
eth_minus_s[19] 0
eth_minus_s[20] 0
eth_minus_s[21] 0
eth_minus_s[22] 0
eth_minus_s[23] 0
eth_minus_s[24] 0
eth_minus_s[25] 0
eth_add_s[0] 0
eth_add_s[1] 0
eth_add_s[2] 0
eth_add_s[3] 0
eth_add_s[4] 0
eth_add_s[5] 0
eth_add_s[6] 0
eth_add_s[7] 0
eth_add_s[8] 0
eth_add_s[9] 0
eth_add_s[10] 0
eth_add_s[11] 0
eth_add_s[12] 0
eth_add_s[13] 0
eth_add_s[14] 0
eth_add_s[15] 1.2096253145033415e+00
eth_add_s[16] 1.2096253497503540e+00
eth_add_s[17] 1.2096253493818949e+00
eth_add_s[18] 2.5728
eth_add_s[19] 2.5728
eth_add_s[20] 2.5727999822940157e+00
eth_add_s[21] 1.7152000002676004e+00
eth_add_s[22] 1.7152000000002090e+00
eth_add_s[23] 1.7152000000000953e+00
eth_add_s[24] 1.7151999999999340e-01
eth_add_s[25] 0
L2R_v[0] 0.1
L2R_v[1] 1.3587513128422028e+01
L2R_v[2] 1.5528847882160246e+01
L2R_v[3] 1.6392284575251910e+01
L2R_v[4] 1.7205270084189369e+01
L2R_v[5] 1.8410546114272375e+01
L2R_v[6] 1.9531789358360243e+01
L2R_v[7] 2.0582837003501325e+01
L2R_v[8] 2.1206221143082512e+01
L2R_v[9] 2.1806471611063952e+01
L2R_v[10] 2.2385499199739019e+01
L2R_v[11] 2.2314291407705952e+01
L2R_v[12] 2.2243492530967597e+01
L2R_v[13] 2.2173100845204857e+01
L2R_v[14] 2.2103114631147193e+01
L2R_v[15] 2.1443328891211738e+01
L2R_v[16] 2.0768748835584471e+01
L2R_v[17] 2.0077831200959896e+01
L2R_v[18] 1.8706778290020054e+01
L2R_v[19] 1.7240729720400726e+01
L2R_v[20] 1.5652911833440669e+01
L2R_v[21] 1.4460660995497678e+01
L2R_v[22] 1.3173111219773734e+01
L2R_v[23] 1.1758916726832327e+01
L2R_v[24] 1.0201549190408318e+01
L2R_v[25] 0.1
L2R_v2[0] 1.0000000000000002e-02
L2R_v2[1] 1.8462051302128526e+02
L2R_v2[2] 2.4114511654727275e+02
L2R_v2[3] 2.6870699359604168e+02
L2R_v2[4] 2.9602131866990163e+02
L2R_v2[5] 3.3894820822574945e+02
L2R_v2[6] 3.8149079553935439e+02
L2R_v2[7] 4.2365317911270313e+02
L2R_v2[8] 4.4970381516931980e+02
L2R_v2[9] 4.7552220412413772e+02
L2R_v2[10] 5.0111057442151622e+02
L2R_v2[11] 4.9792760102801930e+02
L2R_v2[12] 4.9477295997521128e+02
L2R_v2[13] 4.9164640109162406e+02
L2R_v2[14] 4.8854767639763281e+02
L2R_v2[15] 459.816353936676
L2R_v2[16] 431.340928195591
L2R_v2[17] 4.0311930573423842e+02
L2R_v2[18] 3.4994355399196547e+02
L2R_v2[19] 2.9724276129190889e+02
L2R_v2[20] 2.4501364886546688e+02
L2R_v2[21] 2.0911071642670788e+02
L2R_v2[22] 1.7353085920852863e+02
L2R_v2[23] 1.3827212258857708e+02
L2R_v2[24] 1.0407160588432062e+02
L2R_v2[25] 1.0000000000000002e-02
L2R_E_hat[0] 5.0000000000000010e-03
L2R_E_hat[1] 9.2310256510642631e+01
L2R_E_hat[2] 1.2057255827363637e+02
L2R_E_hat[3] 1.3435349679802084e+02
L2R_E_hat[4] 1.4801065933495082e+02
L2R_E_hat[5] 1.6947410411287473e+02
L2R_E_hat[6] 1.9074539776967720e+02
L2R_E_hat[7] 2.1182658955635156e+02
L2R_E_hat[8] 2.2485190758465990e+02
L2R_E_hat[9] 2.3776110206206886e+02
L2R_E_hat[10] 2.5055528721075811e+02
L2R_E_hat[11] 2.4896380051400965e+02
L2R_E_hat[12] 2.4738647998760564e+02
L2R_E_hat[13] 2.4582320054581203e+02
L2R_E_hat[14] 2.4427383819881641e+02
L2R_E_hat[15] 229.908176968338
L2R_E_hat[16] 2.1567046409779550e+02
L2R_E_hat[17] 2.0155965286711921e+02
L2R_E_hat[18] 1.7497177699598274e+02
L2R_E_hat[19] 1.4862138064595445e+02
L2R_E_hat[20] 1.2250682443273344e+02
L2R_E_hat[21] 1.0455535821335394e+02
L2R_E_hat[22] 8.6765429604264313e+01
L2R_E_hat[23] 6.9136061294288538e+01
L2R_E_hat[24] 5.2035802942160309e+01
L2R_E_hat[25] 5.0000000000000010e-03
L2R_a[1] 1.0763206216259635e+00
L2R_a[2] 0.329551093318489
L2R_a[3] 1.6069191376380898e-01
L2R_a[4] 1.5924863032800363e-01
L2R_a[5] 2.5027337660824989e-01
L2R_a[6] 2.4803280849815712e-01
L2R_a[7] 2.4581613557222293e-01
L2R_a[8] 1.5188104044201922e-01
L2R_a[9] 1.5052698784290874e-01
L2R_a[10] 1.4918592757332294e-01
L2R_a[11] -1.8557447490083367e-02
L2R_a[12] -1.8392263600806036e-02
L2R_a[13] -1.8228538267195837e-02
L2R_a[14] -1.8066258710316419e-02
L2R_a[15] -1.6751004233301670e-01
L2R_a[16] -1.6601810716585375e-01
L2R_a[17] -1.6453837722338394e-01
L2R_a[18] -3.1002653767651078e-01
L2R_a[19] -3.0725742012627277e-01
L2R_a[20] -3.0450741853103591e-01
L2R_a[21] -2.0932213408792122e-01
L2R_a[22] -2.0743853322166816e-01
L2R_a[23] -2.0556632824132581e-01
L2R_a[24] -1.9939666921791310e-01
L2R_a[25] -6.0670245968004088e-01
L2R_f[1] 200
L2R_f[2] 3.1036420346160185e+01
L2R_f[3] 0
L2R_f[4] 0
L2R_f[5] 0
L2R_f[6] 0
L2R_f[7] 0
L2R_f[8] 0
L2R_f[9] 0
L2R_f[10] 0
L2R_f[11] 0
L2R_f[12] 0
L2R_f[13] 0
L2R_f[14] 0
L2R_f[15] 0
L2R_f[16] 0
L2R_f[17] 0
L2R_f[18] 0
L2R_f[19] 0
L2R_f[20] 0
L2R_f[21] 0
L2R_f[22] 0
L2R_f[23] 0
L2R_f[24] 0
L2R_f[25] 0
L2R_b[1] 0
L2R_b[2] 0
L2R_b[3] 0
L2R_b[4] 0
L2R_b[5] 0
L2R_b[6] 0
L2R_b[7] 0
L2R_b[8] 0
L2R_b[9] 0
L2R_b[10] 0
L2R_b[11] 0
L2R_b[12] 0
L2R_b[13] 0
L2R_b[14] 0
L2R_b[15] 3.5492116978730342e-07
L2R_b[16] 3.5520191943305695e-07
L2R_b[17] 3.5142958410006036e-07
L2R_b[18] 3.3400334586985997e-07
L2R_b[19] 3.3439347646435641e-07
L2R_b[20] 3.3482111660987357e-07
L2R_b[21] 1.5521180785071926e-08
L2R_b[22] 0
L2R_b[23] 0
L2R_b[24] 3.0328783016690494e+01
L2R_b[25] 1.0687144845963093e+02
L2R_f_max[1] 200
L2R_f_max[2] 200
L2R_f_max[3] 200
L2R_f_max[4] 200
L2R_f_max[5] 200
L2R_f_max[6] 200
L2R_f_max[7] 200
L2R_f_max[8] 200
L2R_f_max[9] 200
L2R_f_max[10] 200
L2R_f_max[11] 200
L2R_f_max[12] 200
L2R_f_max[13] 200
L2R_f_max[14] 200
L2R_f_max[15] 200
L2R_f_max[16] 200
L2R_f_max[17] 200
L2R_f_max[18] 200
L2R_f_max[19] 200
L2R_f_max[20] 200
L2R_f_max[21] 200
L2R_f_max[22] 200
L2R_f_max[23] 200
L2R_f_max[24] 200
L2R_f_max[25] 200
L2R_b_max[1] 200
L2R_b_max[2] 200
L2R_b_max[3] 200
L2R_b_max[4] 200
L2R_b_max[5] 200
L2R_b_max[6] 200
L2R_b_max[7] 200
L2R_b_max[8] 200
L2R_b_max[9] 200
L2R_b_max[10] 200
L2R_b_max[11] 200
L2R_b_max[12] 200
L2R_b_max[13] 200
L2R_b_max[14] 200
L2R_b_max[15] 200
L2R_b_max[16] 200
L2R_b_max[17] 200
L2R_b_max[18] 200
L2R_b_max[19] 200
L2R_b_max[20] 200
L2R_b_max[21] 200
L2R_b_max[22] 200
L2R_b_max[23] 200
L2R_b_max[24] 200
L2R_b_max[25] 200
L2R_gamma[1] 1
L2R_gamma[2] 1
L2R_gamma[3] 1
L2R_gamma[4] 1
L2R_gamma[5] 1
L2R_gamma[6] 1
L2R_gamma[7] 1
L2R_gamma[8] 1
L2R_gamma[9] 1
L2R_gamma[10] 1
L2R_gamma[11] 1
L2R_gamma[12] 1
L2R_gamma[13] 1
L2R_gamma[14] 1
L2R_gamma[15] 0
L2R_gamma[16] 0
L2R_gamma[17] 0
L2R_gamma[18] 0
L2R_gamma[19] 0
L2R_gamma[20] 0
L2R_gamma[21] 0
L2R_gamma[22] 0
L2R_gamma[23] 0
L2R_gamma[24] 0
L2R_gamma[25] 0
L2R_t[1] 1.2623354868465112e+01
L2R_t[2] 5.9171511032889184e+00
L2R_t[3] 5.3771771732406828e+00
L2R_t[4] 5.1081244139252835e+00
L2R_t[5] 4.8213594663649131e+00
L2R_t[6] 4.5244952133393825e+00
L2R_t[7] 4.27868447497487
L2R_t[8] 4.1053372402566657e+00
L2R_t[9] 3.9884368683311409e+00
L2R_t[10] 3.8819144727980759e+00
L2R_t[11] 3.8371641777362493e+00
L2R_t[12] 3.8493932568439053e+00
L2R_t[13] 3.8616295792841595e+00
L2R_t[14] 3.8738728390189778e+00
L2R_t[15] 3.9396875997335541e+00
L2R_t[16] 4.0643300182603310e+00
L2R_t[17] 4.2003293395903105e+00
L2R_t[18] 4.4279060946111812e+00
L2R_t[19] 4.7793509617591878e+00
L2R_t[20] 5.2265601113211320e+00
L2R_t[21] 5.7047127097581658e+00
L2R_t[22] 6.2204019169772931e+00
L2R_t[23] 6.9017100224349752e+00
L2R_t[24] 7.8498775777257537e+00
L2R_t[25] 1.6813132672169647e+01
L2R_Psi_t[1] 7.3596985006131321e-02
L2R_Psi_t[2] 6.4396277662608428e-02
L2R_Psi_t[3] 6.1004309399907572e-02
L2R_Psi_t[4] 5.8121726372603773e-02
L2R_Psi_t[5] 5.4316694018368729e-02
L2R_Psi_t[6] 5.1198586143463981e-02
L2R_Psi_t[7] 4.8584167470688860e-02
L2R_Psi_t[8] 4.7155973393505843e-02
L2R_Psi_t[9] 4.5857946110485381e-02
L2R_Psi_t[10] 4.4671775736484738e-02
L2R_Psi_t[11] 4.4814329154752496e-02
L2R_Psi_t[12] 4.4956968812689409e-02
L2R_Psi_t[13] 4.5099691151959893e-02
L2R_Psi_t[14] 4.5242492593818580e-02
L2R_Psi_t[15] 4.6634550310415496e-02
L2R_Psi_t[16] 4.8149265413939324e-02
L2R_Psi_t[17] 4.9806176274267672e-02
L2R_Psi_t[18] 5.3456559141105212e-02
L2R_Psi_t[19] 5.8002185302905906e-02
L2R_Psi_t[20] 6.3885876994695237e-02
L2R_Psi_t[21] 0.0691531320948157
L2R_Psi_t[22] 7.5912211118276465e-02
L2R_Psi_t[23] 8.5041847240752144e-02
L2R_Psi_t[24] 9.8024327612929424e-02
L2R_phi_n[1] 2.4292186387275528e+04
L2R_phi_n[2] 3.0797537860473426e+03
L2R_phi_n[3] 1.3276980674668353e+03
L2R_phi_n[4] 1.1437236086553394e+03
L2R_phi_n[5] 1.1904591274975094e+03
L2R_phi_n[6] 1117.15931193565
L2R_phi_n[7] 1.0564653024629308e+03
L2R_phi_n[8] 1.0136635161127570e+03
L2R_phi_n[9] 9.8479922674842976e+02
L2R_phi_n[10] 9.5849740069088284e+02
L2R_phi_n[11] 9.4744794512006149e+02
L2R_phi_n[12] 7.8877015771662320e+02
L2R_phi_n[13] 9.5348878500843443e+02
L2R_phi_n[14] -8.9256820956507e-07
L2R_phi_n[15] 9.7276237030458117e+02
L2R_phi_n[16] 1.0035382761136619e+03
L2R_phi_n[17] 0
L2R_phi_n[18] 0
L2R_phi_n[19] 1.1800866572244909e+03
L2R_phi_n[20] 5.0514101342288484e+02
L2R_phi_n[21] 1.4085710394464606e+03
L2R_phi_n[22] 1.5359017078956279e+03
L2R_phi_n[23] 1.7041259314654260e+03
L2R_phi_n[24] 1.4218719749965453e+02
L2R_phi_n[25] 0
L2R_phi_b[1] 0
L2R_phi_b[2] 1.5005700698290373e+03
L2R_phi_b[3] 0
L2R_phi_b[4] 1.0578751086025750e+02
L2R_phi_b[5] 0
L2R_phi_b[6] 0
L2R_phi_b[7] 0
L2R_phi_b[8] 0
L2R_phi_b[9] 0
L2R_phi_b[10] 0
L2R_phi_b[11] 0
L2R_phi_b[12] 1.4552758179812918e+02
L2R_phi_b[13] 0
L2R_phi_b[14] 8.6086063169641750e+02
L2R_phi_b[15] 0
L2R_phi_b[16] 0
L2R_phi_b[17] 9.3340651990896777e+02
L2R_phi_b[18] 9.8397913213582842e+02
L2R_phi_b[19] 0
L2R_phi_b[20] 7.0683089043521068e+02
L2R_phi_b[21] 0
L2R_phi_b[22] 0
L2R_phi_b[23] 0
L2R_phi_b[24] 1.6164487617449226e+03
L2R_phi_b[25] 3.7362517049265894e+03
L2R_w0[1] 2.0905450000000005e+00
L2R_w0[2] 3.42269096329689
L2R_w0[3] 3.8091259668024433e+00
L2R_w0[4] 3.9967398472117397e+00
L2R_w0[5] 4.1822502181794166e+00
L2R_w0[6] 4.4730867053872405e+00
L2R_w0[7] 4.7606017067177344e+00
L2R_w0[8] 5.0449574668668840e+00
L2R_w0[9] 5.2203957658027873e+00
L2R_w0[10] 5.3940977485953212e+00
L2R_w0[11] 5.5660966258972984e+00
L2R_w0[12] 5.5447094624776447e+00
L2R_w0[13] 5.5235104666423558e+00
L2R_w0[14] 5.5024979953785635e+00
L2R_w0[15] 5.4816704199698556e+00
L2R_w0[16] 5.2884509237222694e+00
L2R_w0[17] 5.09674977186007
L2R_w0[18] 4.9065382330419567e+00
L2R_w0[19] 4.5474595281899717e+00
L2R_w0[20] 4.1905370996573357e+00
L2R_w0[21] 3.8354872535932532e+00
L2R_w0[22] 3.5904341345294788e+00
L2R_w0[23] 3.3465470748092185e+00
L2R_w0[24] 3.1035061807487083e+00
L2R_w0[25] 2.8659406203140856e+00
L2R_wi[1] -3.4593999999997322e+00
L2R_wi[2] -3.4594000000011874e+01
L2R_wi[3] -3.4593999667526447e+01
L2R_wi[4] -3.4594000003263496e+01
L2R_wi[5] -5.1891000000000538e+01
L2R_wi[6] -5.1891000000000993e+01
L2R_wi[7] -5.1891000000001476e+01
L2R_wi[8] -3.4727104328712215e+01
L2R_wi[9] -3.4727104328689961e+01
L2R_wi[10] -3.4727104328620470e+01
L2R_wi[11] -3.5925043924989737e+00
L2R_wi[12] -3.5925043924776290e+00
L2R_wi[13] -3.5925043840104323e+00
L2R_wi[14] -3.5925043925304365e+00
L2R_wi[15] 2.4397025492767646e+01
L2R_wi[16] 2.4397025492468195e+01
L2R_wi[17] 2.4397025492216265e+01
L2R_wi[18] 5.1890999642710462e+01
L2R_wi[19] 5.1890999642408495e+01
L2R_wi[20] 5.1890999642230248e+01
L2R_wi[21] 3.4593999987288093e+01
L2R_wi[22] 3.4593999996829638e+01
L2R_wi[23] 34.5940000000046
L2R_wi[24] 3.4593999999997322e+00
L2R_wi[25] 3.4593999999997322e+00
L2R_wtn[1] 2.9900000000000005e-05
L2R_wtn[2] 0.552015333933643
L2R_wtn[3] 7.2102389847634552e-01
L2R_wtn[4] 8.0343391085216465e-01
L2R_wtn[5] 0.885103742823006
L2R_wtn[6] 1.0134551425949909e+00
L2R_wtn[7] 1.1406574786626698e+00
L2R_wtn[8] 1.2667230055469825e+00
L2R_wtn[9] 1.3446144073562663e+00
L2R_wtn[10] 1.4218113903311718e+00
L2R_wtn[11] 1.4983206175203336e+00
L2R_wtn[12] 1.4888035270737778e+00
L2R_wtn[13] 1.4793711503258817e+00
L2R_wtn[14] 1.4700227392639560e+00
L2R_wtn[15] 1.4607575524289222e+00
L2R_wtn[16] 1.3748508982706613e+00
L2R_wtn[17] 1.2897093753048172e+00
L2R_wtn[18] 1.2053267241453729e+00
L2R_wtn[19] 1.0463312264359768e+00
L2R_wtn[20] 8.8875585626280762e-01
L2R_wtn[21] 0.732590810107746
L2R_wtn[22] 6.2524104211585663e-01
L2R_wtn[23] 5.1885726903350060e-01
L2R_wtn[24] 4.1343364653984549e-01
L2R_wtn[25] 3.1117410159411868e-01
L2R_T 1.4017609417220950e+02
L2R_varpi[0] 60
L2R_varpi[1] 60
L2R_varpi[2] 4.8090713731515578e+01
L2R_varpi[3] 4.8090713731515578e+01
L2R_varpi[4] 4.7251130311989726e+01
L2R_varpi[5] 4.7251130311989726e+01
L2R_varpi[6] 4.7251130311990025e+01
L2R_varpi[7] 4.7251130311990323e+01
L2R_varpi[8] 4.7251130311990622e+01
L2R_varpi[9] 4.7251130311990906e+01
L2R_varpi[10] 4.7251130311991190e+01
L2R_varpi[11] 47.2511303119915
L2R_varpi[12] 4.6096149504069842e+01
L2R_varpi[13] 4.6096149504069842e+01
L2R_varpi[14] 3.9263922268383986e+01
L2R_varpi[15] 3.9263922485798588e+01
L2R_varpi[16] 3.9263922703385177e+01
L2R_varpi[17] 3.1855934665415322e+01
L2R_varpi[18] 2.4046576678462170e+01
L2R_varpi[19] 2.4046576883302148e+01
L2R_varpi[20] 1.8436807911594126e+01
L2R_varpi[21] 1.8436807921101988e+01
L2R_varpi[22] 1.8436807925370452e+01
L2R_varpi[23] 1.8436807931490037e+01
L2R_varpi[24] 2.4186395444310044e+01
L2R_varpi[25] 60
L2R_kappa_plus[0] 0
L2R_kappa_plus[1] 500
L2R_kappa_plus[2] 500
L2R_kappa_plus[3] 500
L2R_kappa_plus[4] 500
L2R_kappa_plus[5] 500
L2R_kappa_plus[6] 500
L2R_kappa_plus[7] 500
L2R_kappa_plus[8] 500
L2R_kappa_plus[9] 500
L2R_kappa_plus[10] 500
L2R_kappa_plus[11] 500
L2R_kappa_plus[12] 500
L2R_kappa_plus[13] 500
L2R_kappa_plus[14] 500
L2R_kappa_plus[15] 500
L2R_kappa_plus[16] 500
L2R_kappa_plus[17] 500
L2R_kappa_plus[18] 5.4002807510627363e-06
L2R_kappa_plus[19] 0
L2R_kappa_plus[20] 4.2428858447542643e+02
L2R_kappa_plus[21] 0
L2R_kappa_plus[22] 0
L2R_kappa_plus[23] 4.2428858470494094e+02
L2R_kappa_plus[24] 4.9061445227279961e+02
L2R_kappa_plus[25] 0
L2R_kappa_minus[0] 500
L2R_kappa_minus[1] 500
L2R_kappa_minus[2] 500
L2R_kappa_minus[3] 500
L2R_kappa_minus[4] 500
L2R_kappa_minus[5] 500
L2R_kappa_minus[6] 500
L2R_kappa_minus[7] 500
L2R_kappa_minus[8] 500
L2R_kappa_minus[9] 500
L2R_kappa_minus[10] 500
L2R_kappa_minus[11] 500
L2R_kappa_minus[12] 500
L2R_kappa_minus[13] 500
L2R_kappa_minus[14] 500
L2R_kappa_minus[15] 500
L2R_kappa_minus[16] 500
L2R_kappa_minus[17] 500
L2R_kappa_minus[18] 0
L2R_kappa_minus[19] 4.8900153876548103e+02
L2R_kappa_minus[20] 0
L2R_kappa_minus[21] 0
L2R_kappa_minus[22] 4.2428858463434688e+02
L2R_kappa_minus[23] 2.0592025107902842e+02
L2R_kappa_minus[24] 4.9061445245564391e+02
L2R_kappa_minus[25] 0
L2R_xi[1] 0
L2R_xi[2] 0
L2R_xi[3] 0
L2R_xi[4] 0
L2R_xi[5] 0
L2R_xi[6] 0
L2R_xi[7] 0
L2R_xi[8] 0
L2R_xi[9] 0
L2R_xi[10] 0
L2R_xi[11] 0
L2R_xi[12] 0
L2R_xi[13] 0
L2R_xi[14] 0
L2R_xi[15] 2.7394240116336749e-05
L2R_xi[16] 2.7415909496994587e-05
L2R_xi[17] 2.7124766070473441e-05
L2R_xi[18] 2.5779731528018616e-05
L2R_xi[19] 2.5809837001361317e-05
L2R_xi[20] 0
L2R_xi[21] 1.1979904556937990e-06
L2R_xi[22] 5.3782678514835467e-07
L2R_xi[23] 7.7106768003432134e-07
L2R_xi[24] 2.3408967883602436e+03
L2R_xi[25] 8.2487658769464233e+03
R2L_v[0] 0.1
R2L_v[1] 1.0201549190395879e+01
R2L_v[2] 1.1790574565106924e+01
R2L_v[3] 1.3201635765661683e+01
R2L_v[4] 1.4486886644911809e+01
R2L_v[5] 1.6179645795903326e+01
R2L_v[6] 1.7724604240538643e+01
R2L_v[7] 1.9157634612698139e+01
R2L_v[8] 2.0111371466458511e+01
R2L_v[9] 2.1029897493321783e+01
R2L_v[10] 2.1917701120674437e+01
R2L_v[11] 2.2137236889762207e+01
R2L_v[12] 2.2356559741763778e+01
R2L_v[13] 2.2575692730271232e+01
R2L_v[14] 2.2794658168120375e+01
R2L_v[15] 2.2443921167042372e+01
R2L_v[16] 2.2084389022912060e+01
R2L_v[17] 2.1715594160496103e+01
R2L_v[18] 2.0732487749050495e+01
R2L_v[19] 1.9690844845287312e+01
R2L_v[20] 1.8580717938131343e+01
R2L_v[21] 1.7843035094294930e+01
R2L_v[22] 1.7066395789236527e+01
R2L_v[23] 1.6245135726953094e+01
R2L_v[24] 1.3587513128422026e+01
R2L_v[25] 0.1
R2L_v2[0] 1.0000000000000002e-02
R2L_v2[1] 1.0407160588406681e+02
R2L_v2[2] 1.3901764857534630e+02
R2L_v2[3] 1.7428318688919774e+02
R2L_v2[4] 209.869884662524
R2L_v2[5] 2.6178093808089216e+02
R2L_v2[6] 3.1416159548372025e+02
R2L_v2[7] 3.6701496395364961e+02
R2L_v2[8] 4.0446726226188139e+02
R2L_v2[9] 4.4225658857962185e+02
R2L_v2[10] 4.8038562241521350e+02
R2L_v2[11] 4.9005725711344871e+02
R2L_v2[12] 4.9981576348705295e+02
R2L_v2[13] 5.0966190225162114e+02
R2L_v2[14] 5.1959644100145692e+02
R2L_v2[15] 5.0372959735241233e+02
R2L_v2[16] 4.8772023851531867e+02
R2L_v2[17] 4.7156702974337213e+02
R2L_v2[18] 4.2983604826452870e+02
R2L_v2[19] 3.8772937072117793e+02
R2L_v2[20] 3.4524307909639583e+02
R2L_v2[21] 3.1837390137624044e+02
R2L_v2[22] 2.9126186523487024e+02
R2L_v2[23] 2.6390443478712785e+02
R2L_v2[24] 1.8462051302128526e+02
R2L_v2[25] 1.0000000000000002e-02
R2L_E_hat[0] 5.0000000000000010e-03
R2L_E_hat[1] 3.1250019858173630e+02
R2L_E_hat[2] 3.1250019858173630e+02
R2L_E_hat[3] 3.1250019858173630e+02
R2L_E_hat[4] 3.1250019858173630e+02
R2L_E_hat[5] 3.1250019858173630e+02
R2L_E_hat[6] 4.0376498731296806e+02
R2L_E_hat[7] 3.1250019858173630e+02
R2L_E_hat[8] 3.1250019858173630e+02
R2L_E_hat[9] 3.1250019858173630e+02
R2L_E_hat[10] 3.1250019858173630e+02
R2L_E_hat[11] 3.1250019858174028e+02
R2L_E_hat[12] 3.1250019858174062e+02
R2L_E_hat[13] 3.1250019858173630e+02
R2L_E_hat[14] 3.1250019858173994e+02
R2L_E_hat[15] 3.1250019858173630e+02
R2L_E_hat[16] 3.1250019858173630e+02
R2L_E_hat[17] 3.1250019858173630e+02
R2L_E_hat[18] 568.294443744137
R2L_E_hat[19] 3.1250019858173630e+02
R2L_E_hat[20] 3.1250019858173630e+02
R2L_E_hat[21] 3.1250019858173630e+02
R2L_E_hat[22] 3.1250019858173630e+02
R2L_E_hat[23] 3.1250019858173630e+02
R2L_E_hat[24] 3.1250019858173630e+02
R2L_E_hat[25] 3.1250019858173630e+02
R2L_a[1] -6.0670245967856118e-01
R2L_a[2] -2.0374325263106363e-01
R2L_a[3] -2.0560598363952898e-01
R2L_a[4] -2.0747841518964139e-01
R2L_a[5] -3.0265306330672392e-01
R2L_a[6] -3.0539095967134555e-01
R2L_a[7] -3.0814697102338284e-01
R2L_a[8] -2.1835528397990545e-01
R2L_a[9] -2.2032023272937096e-01
R2L_a[10] -2.2230080361236570e-01
R2L_a[11] -5.6387795582068856e-02
R2L_a[12] -5.6894276898353136e-02
R2L_a[13] -5.7405193356865114e-02
R2L_a[14] -5.7920585062016361e-02
R2L_a[15] 9.2507250752350778e-02
R2L_a[16] 9.3338146205063754e-02
R2L_a[17] 9.4176823530464082e-02
R2L_a[18] 2.4330096477869867e-01
R2L_a[19] 2.4549135694583712e-01
R2L_a[20] 0.247704592028809
R2L_a[21] 1.5665332159605039e-01
R2L_a[22] 1.5806924056302241e-01
R2L_a[23] 1.5949994430819658e-01
R2L_a[24] 4.6224301402660095e-01
R2L_a[25] 1.0763206216259635e+00
R2L_f[1] 0
R2L_f[2] 0
R2L_f[3] 0
R2L_f[4] 0
R2L_f[5] 0
R2L_f[6] 0
R2L_f[7] 0
R2L_f[8] 0
R2L_f[9] 0
R2L_f[10] 0
R2L_f[11] 0
R2L_f[12] 0
R2L_f[13] 0
R2L_f[14] 0
R2L_f[15] 0
R2L_f[16] 0
R2L_f[17] 0
R2L_f[18] 0
R2L_f[19] 0
R2L_f[20] 0
R2L_f[21] 0
R2L_f[22] 0
R2L_f[23] 0
R2L_f[24] 8.6996351791466992e+01
R2L_f[25] 200
R2L_b[1] 1.0687144845935661e+02
R2L_b[2] 6.8730150815099488e-07
R2L_b[3] 3.3751206274246220e-07
R2L_b[4] 3.3235852470170363e-07
R2L_b[5] 0
R2L_b[6] 0
R2L_b[7] 0
R2L_b[8] 0
R2L_b[9] 0
R2L_b[10] 0
R2L_b[11] 0
R2L_b[12] 0
R2L_b[13] 0
R2L_b[14] 0
R2L_b[15] 0
R2L_b[16] 0
R2L_b[17] 0
R2L_b[18] 0
R2L_b[19] 0
R2L_b[20] 0
R2L_b[21] 0
R2L_b[22] 0
R2L_b[23] 0
R2L_b[24] 0
R2L_b[25] 0
R2L_f_max[1] 200
R2L_f_max[2] 200
R2L_f_max[3] 200
R2L_f_max[4] 200
R2L_f_max[5] 200
R2L_f_max[6] 1.7472991793437728e+02
R2L_f_max[7] 200
R2L_f_max[8] 200
R2L_f_max[9] 200
R2L_f_max[10] 200
R2L_f_max[11] 200
R2L_f_max[12] 200
R2L_f_max[13] 200
R2L_f_max[14] 200
R2L_f_max[15] 200
R2L_f_max[16] 200
R2L_f_max[17] 200
R2L_f_max[18] 147.217155125776
R2L_f_max[19] 200
R2L_f_max[20] 200
R2L_f_max[21] 200
R2L_f_max[22] 200
R2L_f_max[23] 200
R2L_f_max[24] 200
R2L_f_max[25] 200
R2L_b_max[1] 200
R2L_b_max[2] 200
R2L_b_max[3] 200
R2L_b_max[4] 200
R2L_b_max[5] 200
R2L_b_max[6] 1.7472991793437728e+02
R2L_b_max[7] 200
R2L_b_max[8] 200
R2L_b_max[9] 200
R2L_b_max[10] 200
R2L_b_max[11] 200
R2L_b_max[12] 200
R2L_b_max[13] 200
R2L_b_max[14] 200
R2L_b_max[15] 200
R2L_b_max[16] 200
R2L_b_max[17] 200
R2L_b_max[18] 147.217155125776
R2L_b_max[19] 200
R2L_b_max[20] 200
R2L_b_max[21] 200
R2L_b_max[22] 200
R2L_b_max[23] 200
R2L_b_max[24] 200
R2L_b_max[25] 200
R2L_gamma[1] 0
R2L_gamma[2] 0
R2L_gamma[3] 0
R2L_gamma[4] 0
R2L_gamma[5] 1
R2L_gamma[6] 1
R2L_gamma[7] 1
R2L_gamma[8] 1
R2L_gamma[9] 1
R2L_gamma[10] 1
R2L_gamma[11] 1
R2L_gamma[12] 1
R2L_gamma[13] 1
R2L_gamma[14] 1
R2L_gamma[15] 1
R2L_gamma[16] 1
R2L_gamma[17] 1
R2L_gamma[18] 1
R2L_gamma[19] 1
R2L_gamma[20] 1
R2L_gamma[21] 1
R2L_gamma[22] 0
R2L_gamma[23] 0
R2L_gamma[24] 1
R2L_gamma[25] 1
R2L_t[1] 1.6813132672190179e+01
R2L_t[2] 7.8400864267198784e+00
R2L_t[3] 6.8848855994632885e+00
R2L_t[4] 6.2080005793353719e+00
R2L_t[5] 5.6101616703788260e+00
R2L_t[6] 5.0694793943461951e+00
R2L_t[7] 4.6575081118082347e+00
R2L_t[8] 4.3703992432400280e+00
R2L_t[9] 4.17112894897482
R2L_t[10] 3.9954114147707127e+00
R2L_t[11] 3.8934173359823441e+00
R2L_t[12] 3.8550130729118788e+00
R2L_t[13] 3.8173933027124773e+00
R2L_t[14] 3.7805304949433531e+00
R2L_t[15] 3.7916820813738927e+00
R2L_t[16] 3.8521826216523571e+00
R2L_t[17] 3.9162608859628070e+00
R2L_t[18] 4.0428694105307690e+00
R2L_t[19] 4.2459133217868308e+00
R2L_t[20] 4.4854305067285827e+00
R2L_t[21] 4.7109473332148557e+00
R2L_t[22] 4.9157184728673426e+00
R2L_t[23] 5.1520992344901941e+00
R2L_t[24] 5.7953980732659263e+00
R2L_t[25] 1.2623354868465112e+01
R2L_Psi_t[1] 9.8024327613048967e-02
R2L_Psi_t[2] 8.4813508830977935e-02
R2L_Psi_t[3] 7.5748188917699522e-02
R2L_Psi_t[4] 6.9027943995905242e-02
R2L_Psi_t[5] 6.1806050182705435e-02
R2L_Psi_t[6] 5.6418749125741297e-02
R2L_Psi_t[7] 5.2198510944413565e-02
R2L_Psi_t[8] 4.9723113198311075e-02
R2L_Psi_t[9] 4.7551349231139059e-02
R2L_Psi_t[10] 4.5625222941685438e-02
R2L_Psi_t[11] 4.5172755975813286e-02
R2L_Psi_t[12] 4.4729601135004814e-02
R2L_Psi_t[13] 4.4295429245416809e-02
R2L_Psi_t[14] 0.0438699274463592
R2L_Psi_t[15] 4.4555494227472306e-02
R2L_Psi_t[16] 4.5280854225241293e-02
R2L_Psi_t[17] 4.6049856734712277e-02
R2L_Psi_t[18] 4.8233478398934444e-02
R2L_Psi_t[19] 5.0785022575571916e-02
R2L_Psi_t[20] 5.3819233644777545e-02
R2L_Psi_t[21] 5.6044276924598804e-02
R2L_Psi_t[22] 5.8594679998613550e-02
R2L_Psi_t[23] 0.0615568879699079
R2L_Psi_t[24] 7.3596985006131321e-02
R2L_phi_n[1] 0
R2L_phi_n[2] 1.9358238090666366e+03
R2L_phi_n[3] 1.0408573264513739e+03
R2L_phi_n[4] 1.5328396492186102e+03
R2L_phi_n[5] 9.7614157635409924e+02
R2L_phi_n[6] 1.2517233072459740e+03
R2L_phi_n[7] 1.1500020029156135e+03
R2L_phi_n[8] -8.6281829680956434e-07
R2L_phi_n[9] 8.7824330466735159e+02
R2L_phi_n[10] -8.9857769580703462e-07
R2L_phi_n[11] 1.8478323536831761e+02
R2L_phi_n[12] -9.0283742792962585e-07
R2L_phi_n[13] 9.4256624758332771e+02
R2L_phi_n[14] 9.3346431973909955e+02
R2L_phi_n[15] 9.3621779787009689e+02
R2L_phi_n[16] 9.5115620287712522e+02
R2L_phi_n[17] 9.6697799653402637e+02
R2L_phi_n[18] 9.9823936062488121e+02
R2L_phi_n[19] 1.0483736597004520e+03
R2L_phi_n[20] 1.1075137053650822e+03
R2L_phi_n[21] 1.1631968723987297e+03
R2L_phi_n[22] 1.2137576476215661e+03
R2L_phi_n[23] 1.2721232675055662e+03
R2L_phi_n[24] 1.0641835486777030e+04
R2L_phi_n[25] 2.4292186387275528e+04
R2L_phi_b[1] 3.7362517049311518e+03
R2L_phi_b[2] 0
R2L_phi_b[3] 5.9320298385227193e+02
R2L_phi_b[4] 0
R2L_phi_b[5] 3.6817517469882750e+02
R2L_phi_b[6] 0
R2L_phi_b[7] 0
R2L_phi_b[8] 9.7119983260765366e+02
R2L_phi_b[9] 1.3649857001601021e+02
R2L_phi_b[10] 8.8786920409110041e+02
R2L_phi_b[11] 698.898940609035
R2L_phi_b[12] 8.5666957257074887e+02
R2L_phi_b[13] 0
R2L_phi_b[14] 0
R2L_phi_b[15] 0
R2L_phi_b[16] 0
R2L_phi_b[17] 0
R2L_phi_b[18] 0
R2L_phi_b[19] 0
R2L_phi_b[20] 0
R2L_phi_b[21] 0
R2L_phi_b[22] 0
R2L_phi_b[23] 2.4281126388814323e-07
R2L_phi_b[24] 0
R2L_phi_b[25] 0
R2L_w0[1] 2.8659406203123137e+00
R2L_w0[2] 3.1086623464777992e+00
R2L_w0[3] 3.35171674528327
R2L_w0[4] 3.5956257394265418e+00
R2L_w0[5] 3.9496366263256517e+00
R2L_w0[6] 4.30525149220146
R2L_w0[7] 4.6628420849031640e+00
R2L_w0[8] 4.9156286450735234e+00
R2L_w0[9] 5.1702608212020955e+00
R2L_w0[10] 5.4268000166814971e+00
R2L_w0[11] 5.4918170927570866e+00
R2L_w0[12] 5.5573967481351287e+00
R2L_w0[13] 5.6235441533921957e+00
R2L_w0[14] 5.69026451655705
R2L_w0[15] 5.5836928102276957e+00
R2L_w0[16] 5.47610856277411
R2L_w0[17] 5.3674985161047806e+00
R2L_w0[18] 5.0866126936601326e+00
R2L_w0[19] 4.8027111891714727e+00
R2L_w0[20] 4.51567104992026
R2L_w0[21] 4.3337921028696531e+00
R2L_w0[22] 4.1499528027611747e+00
R2L_w0[23] 3.9640811562404714e+00
R2L_w0[24] 3.4226909632968905e+00
R2L_w0[25] 2.0905450000000005e+00
R2L_wi[1] 3.4593999999997322e+00
R2L_wi[2] 3.4594000000011874e+01
R2L_wi[3] 3.4593999667526447e+01
R2L_wi[4] 3.4594000003263496e+01
R2L_wi[5] 5.1891000000000538e+01
R2L_wi[6] 5.1891000000000993e+01
R2L_wi[7] 5.1891000000001476e+01
R2L_wi[8] 3.4727104328712215e+01
R2L_wi[9] 3.4727104328689961e+01
R2L_wi[10] 3.4727104328620470e+01
R2L_wi[11] 3.5925043924989737e+00
R2L_wi[12] 3.5925043924776290e+00
R2L_wi[13] 3.5925043840104323e+00
R2L_wi[14] 3.5925043925304365e+00
R2L_wi[15] -2.4397025492767646e+01
R2L_wi[16] -2.4397025492468195e+01
R2L_wi[17] -2.4397025492216265e+01
R2L_wi[18] -5.1890999642710462e+01
R2L_wi[19] -5.1890999642408495e+01
R2L_wi[20] -5.1890999642230248e+01
R2L_wi[21] -3.4593999987288093e+01
R2L_wi[22] -3.4593999996829638e+01
R2L_wi[23] -34.5940000000046
R2L_wi[24] -3.4593999999997322e+00
R2L_wi[25] -3.4593999999997322e+00
R2L_wtn[1] 3.1117410159335979e-01
R2L_wtn[2] 4.1566276924028545e-01
R2L_wtn[3] 5.2110672879870124e-01
R2L_wtn[4] 6.2751095514094679e-01
R2L_wtn[5] 7.8272500486186758e-01
R2L_wtn[6] 9.3934317049632354e-01
R2L_wtn[7] 1.0973747422214124e+00
R2L_wtn[8] 1.2093571141630255e+00
R2L_wtn[9] 1.3223471998530694e+00
R2L_wtn[10] 1.4363530110214884e+00
R2L_wtn[11] 1.4652711987692117e+00
R2L_wtn[12] 1.4944491328262883e+00
R2L_wtn[13] 1.5238890877323472e+00
R2L_wtn[14] 1.5535933585943562e+00
R2L_wtn[15] 1.5061514960837130e+00
R2L_wtn[16] 1.4582835131608030e+00
R2L_wtn[17] 1.4099854189326828e+00
R2L_wtn[18] 1.2852097843109409e+00
R2L_wtn[19] 1.1593108184563221e+00
R2L_wtn[20] 1.0322768064982235e+00
R2L_wtn[21] 0.951937965114959
R2L_wtn[22] 8.7087297705226208e-01
R2L_wtn[23] 7.8907426001351233e-01
R2L_wtn[24] 0.552015333933643
R2L_wtn[25] 2.9900000000000005e-05
R2L_T 1.3849840507811578e+02
R2L_varpi[0] 60
R2L_varpi[1] 2.4186395452731158e+01
R2L_varpi[2] 2.4186395452731428e+01
R2L_varpi[3] 2.8894355014262551e+01
R2L_varpi[4] 2.8894354810669164e+01
R2L_varpi[5] 3.1816380006691602e+01
R2L_varpi[6] 3.1816380006691343e+01
R2L_varpi[7] 3.1816380006691070e+01
R2L_varpi[8] 3.9524315186116610e+01
R2L_varpi[9] 4.0607637170370680e+01
R2L_varpi[10] 4.7654218155220988e+01
R2L_varpi[11] 5.3201035144181581e+01
R2L_varpi[12] 60
R2L_varpi[13] 60
R2L_varpi[14] 60
R2L_varpi[15] 60
R2L_varpi[16] 60
R2L_varpi[17] 60
R2L_varpi[18] 60
R2L_varpi[19] 60
R2L_varpi[20] 60
R2L_varpi[21] 60
R2L_varpi[22] 60
R2L_varpi[23] 60
R2L_varpi[24] 60
R2L_varpi[25] 60
R2L_kappa_plus[0] 0
R2L_kappa_plus[1] 490.614452341879
R2L_kappa_plus[2] 4.9061445236994626e+02
R2L_kappa_plus[3] 500
R2L_kappa_plus[4] 500
R2L_kappa_plus[5] 500
R2L_kappa_plus[6] 500
R2L_kappa_plus[7] 500
R2L_kappa_plus[8] 500
R2L_kappa_plus[9] 500
R2L_kappa_plus[10] 500
R2L_kappa_plus[11] 500
R2L_kappa_plus[12] 500
R2L_kappa_plus[13] 500
R2L_kappa_plus[14] 500
R2L_kappa_plus[15] 500
R2L_kappa_plus[16] 500
R2L_kappa_plus[17] 500
R2L_kappa_plus[18] 500
R2L_kappa_plus[19] 500
R2L_kappa_plus[20] 500
R2L_kappa_plus[21] 500
R2L_kappa_plus[22] 500
R2L_kappa_plus[23] 500
R2L_kappa_plus[24] 500
R2L_kappa_plus[25] 0
R2L_kappa_minus[0] 0
R2L_kappa_minus[1] 4.9061445236994354e+02
R2L_kappa_minus[2] 0
R2L_kappa_minus[3] 500
R2L_kappa_minus[4] 500
R2L_kappa_minus[5] 500
R2L_kappa_minus[6] 500
R2L_kappa_minus[7] 500
R2L_kappa_minus[8] 500
R2L_kappa_minus[9] 500
R2L_kappa_minus[10] 500
R2L_kappa_minus[11] 500
R2L_kappa_minus[12] 500
R2L_kappa_minus[13] 500
R2L_kappa_minus[14] 500
R2L_kappa_minus[15] 500
R2L_kappa_minus[16] 500
R2L_kappa_minus[17] 500
R2L_kappa_minus[18] 500
R2L_kappa_minus[19] 500
R2L_kappa_minus[20] 500
R2L_kappa_minus[21] 500
R2L_kappa_minus[22] 500
R2L_kappa_minus[23] 500
R2L_kappa_minus[24] 500
R2L_kappa_minus[25] 500
R2L_xi[1] 8.2487658778869954e+03
R2L_xi[2] 5.3048684152599920e-05
R2L_xi[3] 2.6050536052935072e-05
R2L_xi[4] 2.5652766737039217e-05
R2L_xi[5] 0
R2L_xi[6] 0
R2L_xi[7] 0
R2L_xi[8] 0
R2L_xi[9] 0
R2L_xi[10] 0
R2L_xi[11] 0
R2L_xi[12] 0
R2L_xi[13] 0
R2L_xi[14] 0
R2L_xi[15] 0
R2L_xi[16] 0
R2L_xi[17] 0
R2L_xi[18] 0
R2L_xi[19] 0
R2L_xi[20] 0
R2L_xi[21] 0
R2L_xi[22] 4.9477759239380292e-07
R2L_xi[23] 2.4281126388814323e-07
R2L_xi[24] 0
R2L_xi[25] 0
